data/MCDM/NO_CORR/GEN_FROM_60/18_ITEMS_1000_GEN/K5018W15.KNP.mps
NAME          BLANK   
ROWS
 N  OBJROW
 L  R0000000
COLUMNS
    C0000000  OBJROW     -776.         R0000000  413.        
    C0000001  OBJROW     -261.         R0000000  268.        
    C0000002  OBJROW     -149.         R0000000  723.        
    C0000003  OBJROW     -126.         R0000000  440.        
    C0000004  OBJROW     -644.         R0000000  449.        
    C0000005  OBJROW     -294.         R0000000  785.        
    C0000006  OBJROW     -373.         R0000000  937.        
    C0000007  OBJROW     -367.         R0000000  423.        
    C0000008  OBJROW     -327.         R0000000  792.        
    C0000009  OBJROW     -408.         R0000000  582.        
    C0000010  OBJROW     -209.         R0000000  278.        
    C0000011  OBJROW     -253.         R0000000  642.        
    C0000012  OBJROW     -293.         R0000000  255.        
    C0000013  OBJROW     -229.         R0000000  336.        
    C0000014  OBJROW     -6.           R0000000  19.         
    C0000015  OBJROW     -477.         R0000000  480.        
    C0000016  OBJROW     -580.         R0000000  161.        
    C0000017  OBJROW     -191.         R0000000  380.        
RHS
    RHS       R0000000  13564.      
BOUNDS
 BV BOUND     C0000000  1.          
 BV BOUND     C0000001  1.          
 BV BOUND     C0000002  1.          
 BV BOUND     C0000003  1.          
 BV BOUND     C0000004  1.          
 BV BOUND     C0000005  1.          
 BV BOUND     C0000006  1.          
 BV BOUND     C0000007  1.          
 BV BOUND     C0000008  1.          
 BV BOUND     C0000009  1.          
 BV BOUND     C0000010  1.          
 BV BOUND     C0000011  1.          
 BV BOUND     C0000012  1.          
 BV BOUND     C0000013  1.          
 BV BOUND     C0000014  1.          
 BV BOUND     C0000015  1.          
 BV BOUND     C0000016  1.          
 BV BOUND     C0000017  1.          
ENDATA
