interdiction/MCDM/NO_CORR/GEN_FROM_60/18_ITEMS_1000_GEN/K5018W15.KNP.txt
N 18
M 19
LC 18
LC 19
LC 20
LC 21
LC 22
LC 23
LC 24
LC 25
LC 26
LC 27
LC 28
LC 29
LC 30
LC 31
LC 32
LC 33
LC 34
LC 35
LR 1
LR 2
LR 3
LR 4
LR 5
LR 6
LR 7
LR 8
LR 9
LR 10
LR 11
LR 12
LR 13
LR 14
LR 15
LR 16
LR 17
LR 18
LR 19
LO -776
LO -261
LO -149
LO -126
LO -644
LO -294
LO -373
LO -367
LO -327
LO -408
LO -209
LO -253
LO -293
LO -229
LO -6
LO -477
LO -580
LO -191
OS 1
IC 260
IC 820
IC 927
IC 196
IC 616
IC 459
IC 936
IC 129
IC 529
IC 247
IC 504
IC 740
IC 150
IC 148
IC 111
IC 828
IC 653
IC 568
IB 4411
